certificates/rado_a11_c90_N22.cnf
c Rad2 upper bound instance: x1 + 11*x2 - x3 = 90, interval [1,22]
p cnf 22 88
1 9 10 0
-1 -9 -10 0
1 10 21 0
-1 -10 -21 0
2 9 11 0
-2 -9 -11 0
2 10 22 0
-2 -10 -22 0
1 3 8 0
-1 -3 -8 0
3 9 12 0
-3 -9 -12 0
2 4 8 0
-2 -4 -8 0
4 9 13 0
-4 -9 -13 0
3 5 8 0
-3 -5 -8 0
5 9 14 0
-5 -9 -14 0
4 6 8 0
-4 -6 -8 0
6 9 15 0
-6 -9 -15 0
5 7 8 0
-5 -7 -8 0
7 9 16 0
-7 -9 -16 0
6 8 0
-6 -8 0
8 9 17 0
-8 -9 -17 0
7 8 9 0
-7 -8 -9 0
9 18 0
-9 -18 0
8 10 0
-8 -10 0
9 10 19 0
-9 -10 -19 0
8 9 11 0
-8 -9 -11 0
9 11 20 0
-9 -11 -20 0
8 10 12 0
-8 -10 -12 0
9 12 21 0
-9 -12 -21 0
8 11 13 0
-8 -11 -13 0
9 13 22 0
-9 -13 -22 0
1 7 14 0
-1 -7 -14 0
8 12 14 0
-8 -12 -14 0
2 7 15 0
-2 -7 -15 0
8 13 15 0
-8 -13 -15 0
3 7 16 0
-3 -7 -16 0
8 14 16 0
-8 -14 -16 0
4 7 17 0
-4 -7 -17 0
8 15 17 0
-8 -15 -17 0
5 7 18 0
-5 -7 -18 0
8 16 18 0
-8 -16 -18 0
6 7 19 0
-6 -7 -19 0
8 17 19 0
-8 -17 -19 0
7 20 0
-7 -20 0
8 18 20 0
-8 -18 -20 0
7 8 21 0
-7 -8 -21 0
8 19 21 0
-8 -19 -21 0
7 9 22 0
-7 -9 -22 0
8 20 22 0
-8 -20 -22 0
