certificates/rado_a11_c90_N22.drat
-20 -21 -22 0
-21 -22 0
d -20 -21 -22 0
-7 -22 0
-22 0
7 21 0
d 7 8 21 0
-7 0
20 0
21 0
9 0
-18 0
-11 0
-12 0
5 0
-14 0
8 0
1 0
-6 0
-10 0
-19 0
-17 0
-3 0
0
